db/data/2006690214881236682749049282830711501.z3.out
sat
-------------------
451.899689792
